13422
13637
13561
13550
13496
13489
13428
13455
13503
13497
13359
13392
13511
13452
13642
13533
13533
13589
13544
13544
13583
13389
13552
13470
13658
13380
13494
13490
13532
13539
13460
13476
13605
13496
13448
13476
13526
13546
13403
13533
13440
13448
13548
13523
13545
13454
13471
13586
13492
13499
13478
13521
13464
13522
13601
13439
13472
13527
13556
13471
13655
13503
13483
13400
13460
13528
13532
13399
13455
13502
13541
13544
13541
13579
13534
13514
13617
13534
13506
13375
13522
13571
13514
13445
13486
13512
13583
13504
13543
13545
13519
13513
13480
13487
13538
13489
13632
13516
13448
13458
